\ i_10_55_no_8

Minimize
  9.49 x_d_c1 + 9.49 z_d_c1 + 22.85 x_d_c2 + 22.85 z_d_c2 + 21.93 x_d_c3 + 21.93 z_d_c3 + 26.08 x_d_c4 + 26.08 z_d_c4 + 24.74 x_d_c5 + 24.74 z_d_c5 + 23.35 x_d_c6 + 23.35 z_d_c6 + 25.61 x_d_c7 + 25.61 z_d_c7 + 29.68 x_d_c8 + 29.68 z_d_c8 + 12.73 x_d_c9 + 12.73 z_d_c9 + 12.37 x_d_c10 + 12.37 z_d_c10 + 25.46 x_c1_c2 + 25.46 x_c2_c1 + 24.76 x_c1_c3 + 24.76 x_c3_c1 + 17.03 x_c1_c4 + 17.03 x_c4_c1 + 21.21 x_c1_c5 + 21.21 x_c5_c1 + 15.26 x_c1_c6 + 15.26 x_c6_c1 + 18.38 x_c1_c7 + 18.38 x_c7_c1 + 20.62 x_c1_c8 + 20.62 x_c8_c1 + 21.63 x_c1_c9 + 21.63 x_c9_c1 + 1.0 x_c2_c3 + 1.0 x_c3_c2 + 31.78 x_c2_c4 + 31.78 x_c4_c2 + 15.3 x_c2_c5 + 15.3 x_c5_c2 + 26.48 x_c2_c6 + 26.48 x_c6_c2 + 25.02 x_c2_c7 + 25.02 x_c7_c2 + 34.37 x_c2_c8 + 34.37 x_c8_c2 + 30.0 x_c2_c9 + 30.0 x_c9_c2 + 31.58 x_c3_c4 + 31.58 x_c4_c3 + 15.52 x_c3_c5 + 15.52 x_c5_c3 + 26.31 x_c3_c6 + 26.31 x_c6_c3 + 25.0 x_c3_c7 + 25.0 x_c7_c3 + 34.23 x_c3_c8 + 34.23 x_c8_c3 + 29.0 x_c3_c9 + 29.0 x_c9_c3 + 18.87 x_c4_c5 + 18.87 x_c5_c4 + 5.39 x_c4_c6 + 5.39 x_c6_c4 + 8.49 x_c4_c7 + 8.49 x_c7_c4 + 3.61 x_c4_c8 + 3.61 x_c8_c4 + 38.6 x_c4_c9 + 38.6 x_c9_c4 + 13.6 x_c5_c6 + 13.6 x_c6_c5 + 10.77 x_c5_c7 + 10.77 x_c7_c5 + 20.62 x_c5_c8 + 20.62 x_c8_c5 + 36.25 x_c5_c9 + 36.25 x_c9_c5 + 4.12 x_c6_c7 + 4.12 x_c7_c6 + 8.0 x_c6_c8 + 8.0 x_c8_c6 + 36.07 x_c6_c9 + 36.07 x_c9_c6 + 9.85 x_c7_c8 + 9.85 x_c8_c7 + 38.29 x_c7_c9 + 38.29 x_c9_c7 + 42.2 x_c8_c9 + 42.2 x_c9_c8 + 9.49 x_c1_D + 22.85 x_c2_D + 21.93 x_c3_D + 26.08 x_c4_D + 24.74 x_c5_D + 23.35 x_c6_D + 25.61 x_c7_D + 29.68 x_c8_D + 12.73 x_c9_D + 12.37 x_c10_D
Subject To
Bounds

Generals
Binary
  x_c10_D
  x_c1_D
  x_c1_c2
  x_c1_c3
  x_c1_c4
  x_c1_c5
  x_c1_c6
  x_c1_c7
  x_c1_c8
  x_c1_c9
  x_c2_D
  x_c2_c1
  x_c2_c3
  x_c2_c4
  x_c2_c5
  x_c2_c6
  x_c2_c7
  x_c2_c8
  x_c2_c9
  x_c3_D
  x_c3_c1
  x_c3_c2
  x_c3_c4
  x_c3_c5
  x_c3_c6
  x_c3_c7
  x_c3_c8
  x_c3_c9
  x_c4_D
  x_c4_c1
  x_c4_c2
  x_c4_c3
  x_c4_c5
  x_c4_c6
  x_c4_c7
  x_c4_c8
  x_c4_c9
  x_c5_D
  x_c5_c1
  x_c5_c2
  x_c5_c3
  x_c5_c4
  x_c5_c6
  x_c5_c7
  x_c5_c8
  x_c5_c9
  x_c6_D
  x_c6_c1
  x_c6_c2
  x_c6_c3
  x_c6_c4
  x_c6_c5
  x_c6_c7
  x_c6_c8
  x_c6_c9
  x_c7_D
  x_c7_c1
  x_c7_c2
  x_c7_c3
  x_c7_c4
  x_c7_c5
  x_c7_c6
  x_c7_c8
  x_c7_c9
  x_c8_D
  x_c8_c1
  x_c8_c2
  x_c8_c3
  x_c8_c4
  x_c8_c5
  x_c8_c6
  x_c8_c7
  x_c8_c9
  x_c9_D
  x_c9_c1
  x_c9_c2
  x_c9_c3
  x_c9_c4
  x_c9_c5
  x_c9_c6
  x_c9_c7
  x_c9_c8
  x_d_c1
  x_d_c10
  x_d_c2
  x_d_c3
  x_d_c4
  x_d_c5
  x_d_c6
  x_d_c7
  x_d_c8
  x_d_c9
  z_d_c1
  z_d_c10
  z_d_c2
  z_d_c3
  z_d_c4
  z_d_c5
  z_d_c6
  z_d_c7
  z_d_c8
  z_d_c9
End
